<?xml version = "1.0" standalone="yes"?>
<!-- This file has been generated by DOcplex version 2.23.222  -->
<CPLEXSolution version="1.0">
 <header
   problemName="CVRP"
   objectiveValue="14177.2"
  />
 <variables>
  <variable name="x_0_1" index="0" value="1.00000"/>
  <variable name="x_0_2" index="1" value="1.00000"/>
  <variable name="x_0_3" index="2" value="1.00000"/>
  <variable name="x_0_4" index="3" value="1.00000"/>
  <variable name="x_0_5" index="4" value="1.00000"/>
  <variable name="x_0_7" index="6" value="1.00000"/>
  <variable name="x_0_9" index="8" value="1.00000"/>
  <variable name="x_0_12" index="11" value="1.00000"/>
  <variable name="x_0_15" index="14" value="1.00000"/>
  <variable name="x_0_16" index="15" value="1.00000"/>
  <variable name="x_0_17" index="16" value="1.00000"/>
  <variable name="x_0_19" index="18" value="1.00000"/>
  <variable name="x_0_20" index="19" value="1.00000"/>
  <variable name="x_0_24" index="23" value="1.00000"/>
  <variable name="x_0_25" index="24" value="1.00000"/>
  <variable name="x_0_26" index="25" value="1.00000"/>
  <variable name="x_1_14" index="42" value="1.00000"/>
  <variable name="x_2_0" index="58" value="1.00000"/>
  <variable name="x_3_11" index="97" value="1.00000"/>
  <variable name="x_4_29" index="144" value="1.00000"/>
  <variable name="x_5_28" index="172" value="1.00000"/>
  <variable name="x_6_27" index="200" value="1.00000"/>
  <variable name="x_7_0" index="203" value="1.00000"/>
  <variable name="x_8_18" index="249" value="1.00000"/>
  <variable name="x_9_22" index="282" value="1.00000"/>
  <variable name="x_10_0" index="290" value="1.00000"/>
  <variable name="x_11_13" index="331" value="1.00000"/>
  <variable name="x_12_21" index="368" value="1.00000"/>
  <variable name="x_13_0" index="377" value="1.00000"/>
  <variable name="x_14_23" index="428" value="1.00000"/>
  <variable name="x_15_10" index="445" value="1.00000"/>
  <variable name="x_16_0" index="464" value="1.00000"/>
  <variable name="x_17_0" index="493" value="1.00000"/>
  <variable name="x_18_0" index="522" value="1.00000"/>
  <variable name="x_19_0" index="551" value="1.00000"/>
  <variable name="x_20_6" index="586" value="1.00000"/>
  <variable name="x_21_0" index="609" value="1.00000"/>
  <variable name="x_22_0" index="638" value="1.00000"/>
  <variable name="x_23_0" index="667" value="1.00000"/>
  <variable name="x_24_0" index="696" value="1.00000"/>
  <variable name="x_25_0" index="725" value="1.00000"/>
  <variable name="x_26_0" index="754" value="1.00000"/>
  <variable name="x_27_0" index="783" value="1.00000"/>
  <variable name="x_28_0" index="812" value="1.00000"/>
  <variable name="x_29_8" index="849" value="1.00000"/>
  <variable name="u_1" index="870" value="3.00000"/>
  <variable name="u_2" index="871" value="28.00000"/>
  <variable name="u_3" index="872" value="15.00000"/>
  <variable name="u_4" index="873" value="16.00000"/>
  <variable name="u_5" index="874" value="2.00000"/>
  <variable name="u_6" index="875" value="26.00000"/>
  <variable name="u_7" index="876" value="24.00000"/>
  <variable name="u_8" index="877" value="26.00000"/>
  <variable name="u_9" index="878" value="21.00000"/>
  <variable name="u_10" index="879" value="33.00000"/>
  <variable name="u_11" index="880" value="16.00000"/>
  <variable name="u_12" index="881" value="9.00000"/>
  <variable name="u_13" index="882" value="30.00000"/>
  <variable name="u_14" index="883" value="18.00000"/>
  <variable name="u_15" index="884" value="29.00000"/>
  <variable name="u_16" index="885" value="22.00000"/>
  <variable name="u_17" index="886" value="33.00000"/>
  <variable name="u_18" index="887" value="30.00000"/>
  <variable name="u_19" index="888" value="33.00000"/>
  <variable name="u_20" index="889" value="16.00000"/>
  <variable name="u_21" index="890" value="29.00000"/>
  <variable name="u_22" index="891" value="32.00000"/>
  <variable name="u_23" index="892" value="33.00000"/>
  <variable name="u_24" index="893" value="33.00000"/>
  <variable name="u_25" index="894" value="33.00000"/>
  <variable name="u_26" index="895" value="33.00000"/>
  <variable name="u_27" index="896" value="29.00000"/>
  <variable name="u_28" index="897" value="32.00000"/>
  <variable name="u_29" index="898" value="20.00000"/>
 </variables>
</CPLEXSolution>
